Two_Echelon_Multicommodity_Location_Problem.lp
\ENCODING=ISO-8859-1
\Problem name: ilog.cplex

Minimize
 obj: 10.2080247690512 s(ke1)(ie1)(je1)(re1)#0
      + 13.5442865822861 s(ke1)(ie1)(je1)(re2)#1
      + 9.29009865115392 s(ke1)(ie1)(je2)(re1)#2
      + 12.1532605548645 s(ke1)(ie1)(je2)(re2)#3
      + 1.64543474547428 s(ke1)(ie2)(je1)(re1)#4
      + 12.4140474789514 s(ke1)(ie2)(je1)(re2)#5
      + 8.59388521701428 s(ke1)(ie2)(je2)(re1)#6
      + 2.44789594003477 s(ke1)(ie2)(je2)(re2)#7 + 960000 z(1)#8
      + 800 y(1)(1)#9 + 600 y(1)(2)#10 + 880000 z(2)#11 + 1600 y(2)(1)#12
      + 1200 y(2)(2)#13
Subject To
 c1:  s(ke1)(ie1)(je1)(re1)#0 + s(ke1)(ie1)(je1)(re2)#1
      + s(ke1)(ie1)(je2)(re1)#2 + s(ke1)(ie1)(je2)(re2)#3 <= 1200
 c3:  s(ke1)(ie2)(je1)(re1)#4 + s(ke1)(ie2)(je1)(re2)#5
      + s(ke1)(ie2)(je2)(re1)#6 + s(ke1)(ie2)(je2)(re2)#7 <= 1500
 c5:  s(ke1)(ie1)(je1)(re1)#0 + s(ke1)(ie2)(je1)(re1)#4 - 1600 y(1)(1)#9  = 0
 c7:  s(ke1)(ie1)(je1)(re2)#1 + s(ke1)(ie2)(je1)(re2)#5 - 1200 y(1)(2)#10  = 0
 c9:  s(ke1)(ie1)(je2)(re1)#2 + s(ke1)(ie2)(je2)(re1)#6 - 1600 y(2)(1)#12  = 0
 c11: s(ke1)(ie1)(je2)(re2)#3 + s(ke1)(ie2)(je2)(re2)#7 - 1200 y(2)(2)#13  = 0
 c13: y(1)(1)#9 + y(2)(1)#12  = 1
 c15: y(1)(2)#10 + y(2)(2)#13  = 1
 c17: - 1500 z(1)#8 + 1600 y(1)(1)#9 + 1200 y(1)(2)#10 <= 0
 c19: - 1200 z(2)#11 + 1600 y(2)(1)#12 + 1200 y(2)(2)#13 <= 0
 c21: 1600 y(1)(1)#9 + 1200 y(1)(2)#10 >= 0
 c23: 1600 y(2)(1)#12 + 1200 y(2)(2)#13 >= 0
 c25: z(1)#8 + z(2)#11  = 1
Bounds
 0 <= z(1)#8 <= 1
 0 <= y(1)(1)#9 <= 1
 0 <= y(1)(2)#10 <= 1
 0 <= z(2)#11 <= 1
 0 <= y(2)(1)#12 <= 1
 0 <= y(2)(2)#13 <= 1
Generals
 z(1)#8  y(1)(1)#9  y(1)(2)#10  z(2)#11  y(2)(1)#12  y(2)(2)#13 
End
