Two_Echelon_Multicommodity_Location_Problem.log
Infeasibility row 'c13':  0  = 1.
Presolve time = 0.00 sec. (0.00 ticks)

Root node processing (before b&c):
  Real time             =    0.00 sec. (0.01 ticks)
Parallel b&c, 4 threads:
  Real time             =    0.00 sec. (0.00 ticks)
  Sync time (average)   =    0.00 sec.
  Wait time (average)   =    0.00 sec.
                          ------------
Total (root+branch&cut) =    0.00 sec. (0.01 ticks)


Feasibility condition is satisfied for commodity 1


Total demand is less than total capacity for commodity 1
Total demand for commodity 1 is : 1400.0
Total capacity for commodity 1 is : 2700.0
The problem status is:Infeasible
